NAME: rue_15_2
TYPE: TSP
DIMENSION: 15
EDGE_WEIGHT_TYPE: EUC_2D
NODE_COORD_SECTION
1 91 27
2 16 84
3 96 17
4 29 63
5 91 17
6 10 8
7 21 99
8 76 7
9 23 27
10 72 14
11 35 76
12 97 59
13 41 26
14 86 4
15 91 75
